\ Generated by MPModelProtoExporter
\   Name             : 
\   Format           : Free
\   Constraints      : 31
\   Variables        : 30
\     Binary         : 30
\     Integer        : 0
\     Continuous     : 0
Minimize
 Obj: +10 y[0][0] +12 y[0][1] +90 y[0][2] +20 y[0][3] +45 y[0][4] +40 y[1][0] +4 y[1][1] +45 y[1][2] +10 y[1][3] +75 y[1][4] +30 y[2][0] +20 y[2][1] +18 y[2][2] +15 y[2][3] +36 y[2][4] +50 y[3][0] +15 y[3][1] +75 y[3][2] +4 y[3][3] +30 y[3][4] +20 y[4][0] +25 y[4][1] +45 y[4][2] +12 y[4][3] +15 y[4][4] 
Subject to
 two_station: +1 x[0] +1 x[1] +1 x[2] +1 x[3] +1 x[4]  = 2
 assign_st_0: +1 y[0][0] +1 y[1][0] +1 y[2][0] +1 y[3][0] +1 y[4][0]  = 1
 assign_st_1: +1 y[0][1] +1 y[1][1] +1 y[2][1] +1 y[3][1] +1 y[4][1]  = 1
 assign_st_2: +1 y[0][2] +1 y[1][2] +1 y[2][2] +1 y[3][2] +1 y[4][2]  = 1
 assign_st_3: +1 y[0][3] +1 y[1][3] +1 y[2][3] +1 y[3][3] +1 y[4][3]  = 1
 assign_st_4: +1 y[0][4] +1 y[1][4] +1 y[2][4] +1 y[3][4] +1 y[4][4]  = 1
 st배치보장_0_0: -1 x[0] +1 y[0][0]  <= 0
 st배치보장_0_1: -1 x[0] +1 y[0][1]  <= 0
 st배치보장_0_2: -1 x[0] +1 y[0][2]  <= 0
 st배치보장_0_3: -1 x[0] +1 y[0][3]  <= 0
 st배치보장_0_4: -1 x[0] +1 y[0][4]  <= 0
 st배치보장_1_0: -1 x[1] +1 y[1][0]  <= 0
 st배치보장_1_1: -1 x[1] +1 y[1][1]  <= 0
 st배치보장_1_2: -1 x[1] +1 y[1][2]  <= 0
 st배치보장_1_3: -1 x[1] +1 y[1][3]  <= 0
 st배치보장_1_4: -1 x[1] +1 y[1][4]  <= 0
 st배치보장_2_0: -1 x[2] +1 y[2][0]  <= 0
 st배치보장_2_1: -1 x[2] +1 y[2][1]  <= 0
 st배치보장_2_2: -1 x[2] +1 y[2][2]  <= 0
 st배치보장_2_3: -1 x[2] +1 y[2][3]  <= 0
 st배치보장_2_4: -1 x[2] +1 y[2][4]  <= 0
 st배치보장_3_0: -1 x[3] +1 y[3][0]  <= 0
 st배치보장_3_1: -1 x[3] +1 y[3][1]  <= 0
 st배치보장_3_2: -1 x[3] +1 y[3][2]  <= 0
 st배치보장_3_3: -1 x[3] +1 y[3][3]  <= 0
 st배치보장_3_4: -1 x[3] +1 y[3][4]  <= 0
 st배치보장_4_0: -1 x[4] +1 y[4][0]  <= 0
 st배치보장_4_1: -1 x[4] +1 y[4][1]  <= 0
 st배치보장_4_2: -1 x[4] +1 y[4][2]  <= 0
 st배치보장_4_3: -1 x[4] +1 y[4][3]  <= 0
 st배치보장_4_4: -1 x[4] +1 y[4][4]  <= 0
Bounds
 0 <= x[0] <= 1
 0 <= x[1] <= 1
 0 <= x[2] <= 1
 0 <= x[3] <= 1
 0 <= x[4] <= 1
 0 <= y[0][0] <= 1
 0 <= y[0][1] <= 1
 0 <= y[0][2] <= 1
 0 <= y[0][3] <= 1
 0 <= y[0][4] <= 1
 0 <= y[1][0] <= 1
 0 <= y[1][1] <= 1
 0 <= y[1][2] <= 1
 0 <= y[1][3] <= 1
 0 <= y[1][4] <= 1
 0 <= y[2][0] <= 1
 0 <= y[2][1] <= 1
 0 <= y[2][2] <= 1
 0 <= y[2][3] <= 1
 0 <= y[2][4] <= 1
 0 <= y[3][0] <= 1
 0 <= y[3][1] <= 1
 0 <= y[3][2] <= 1
 0 <= y[3][3] <= 1
 0 <= y[3][4] <= 1
 0 <= y[4][0] <= 1
 0 <= y[4][1] <= 1
 0 <= y[4][2] <= 1
 0 <= y[4][3] <= 1
 0 <= y[4][4] <= 1
Binaries
 x[0]
 x[1]
 x[2]
 x[3]
 x[4]
 y[0][0]
 y[0][1]
 y[0][2]
 y[0][3]
 y[0][4]
 y[1][0]
 y[1][1]
 y[1][2]
 y[1][3]
 y[1][4]
 y[2][0]
 y[2][1]
 y[2][2]
 y[2][3]
 y[2][4]
 y[3][0]
 y[3][1]
 y[3][2]
 y[3][3]
 y[3][4]
 y[4][0]
 y[4][1]
 y[4][2]
 y[4][3]
 y[4][4]
End
